num_dissertations = 20;
num_professors = 38;

dissertations = [|
	 1, 16, 20, 29 |
	 2, 0, 21, 17 |
	 3, 17, 7, 24 |
	 4, 0, 5, 29 |
	 5, 0, 22, 30 |
	 6, 0, 1, 15 |
	 7, 18, 23, 8 |
	 8, 0, 24, 9 |
	 9, 0, 25, 17 |
	 10, 0, 26, 24 |
	 3, 0, 14, 31 |
	 11, 19, 24, 32 |
	 12, 0, 25, 27 |
	 12, 0, 9, 6 |
	 13, 4, 27, 25 |
	 14, 0, 24, 8 |
	 15, 8, 28, 25 |
	 6, 0, 10, 27 |
	 8, 0, 4, 28 |
	 1, 0, 23, 25 |];

slots = [|
	 0, 40, 25, 24 |
	 0, 43, 25, 24 |
	 0, 48, 34, 37 |
	 0, 51, 34, 37 |
	 0, 60, 5, 38 |
	 0, 63, 5, 38 |
	 0, 68, 5, 38 |
	 0, 71, 5, 38 |
	 1, 40, 29, 36 |
	 1, 43, 10, 35 |
	 1, 48, 25, 24 |
	 1, 51, 33, 26 |
	 1, 60, 33, 26 |
	 1, 63, 33, 26 |
	 2, 39, 10, 35 |
	 2, 43, 10, 35 |
	 2, 48, 29, 36 |
	 2, 51, 29, 36 |
	 2, 60, 34, 37 |
	 2, 63, 33, 26 |];